10
5
1005004
0
0
78 53 83 5 76 
1
0
82 49 80 11 74 
2
0
80 50 85 6 72 
3
0
80 57 80 9 76 
4
0
87 57 81 9 72 
5
0
78 56 79 12 73 
6
0
86 51 83 4 73 
7
0
84 56 80 13 72 
8
0
79 49 80 9 75 
9
0
79 51 82 10 78 
